
  32    4
  10   10   10   10

   0   0   0   0   0   7 2 3 4 6 8 9 14 
   4   1   0   1   1   4 15 10 7 5 
   8   0   1   3   6   6 19 17 15 13 12 10 
   7   5   4   3   0   5 16 15 13 12 11 
   8   0   1   7   2   5 31 19 17 16 13 
  10   6   4   0   2   2 16 7 
   3   0   4   3   5   5 31 22 19 18 12 
   7   5   3   0   3   3 25 18 10 
   3   5   0   4   6   6 31 26 21 20 19 18 
   2   3   5   0   4   4 31 21 20 16 
   4   0   4   3   6   6 31 30 24 22 20 19 
   1   0   2   3   5   6 30 26 25 24 21 20 
  10   3   4   5   0   5 25 22 21 20 18 
   9   4   4   0   4   5 31 30 26 21 18 
   2   4   0   4   4   5 31 26 25 22 20 
   2   5   4   0   3   5 30 26 24 23 22 
   6   3   5   7   0   4 30 25 22 20 
   7   3   3   0   5   2 24 23 
   4   9   0   5   4   3 29 28 25 
   8   3   4   0   3   2 27 23 
   9   1   4   6   0   2 27 23 
   2   2   2   0   3   3 29 28 27 
  10   0   5   4   6   2 29 28 
  10   4   5   2   0   1 27 
   5   0   5   2   7   1 27 
   8   3   0   2   4   1 28 
   8   6   5   5   0   1 32
   7   2   7   0   2   1 32
   3   3   6   5   0   1 32
   8   7   0   7   3   1 32
   1   5   5   3   0   1 32
   0   0   0   0   0   0 
